(set-logic QF_LIA)
(set-option :timeout 10000)
(declare-fun |s(0)| () Int)
(declare-fun |s(2)| () Int)
(declare-fun u_0_0 () Bool)
(declare-fun u_0_1 () Bool)
(declare-fun u_0_2 () Bool)
(declare-fun u_1_0 () Bool)
(declare-fun u_1_1 () Bool)
(declare-fun u_1_2 () Bool)
(declare-fun u_2_0 () Bool)
(declare-fun u_2_1 () Bool)
(declare-fun u_2_2 () Bool)
(declare-fun x_0_0 () Int)
(declare-fun x_0_1 () Int)
(declare-fun x_0_2 () Int)
(declare-fun x_1_0 () Int)
(declare-fun x_1_1 () Int)
(declare-fun x_1_2 () Int)
(declare-fun x_2_0 () Int)
(declare-fun x_2_1 () Int)
(declare-fun x_2_2 () Int)
(declare-fun t_0 () Int)
(declare-fun t_1 () Int)
(declare-fun a_0 () Int)
(declare-fun a_1 () Int)
; Variables assignment
(assert (= |s(0)| 115792089237316195423570985008687907853269984665640564039457584007913129639936))
(assert (= |s(2)| 115792089237316195423570985008687907853269984665640564039457584007913129639937))
; Instructions constraints
(assert (and (<= 0 t_0) (< t_0 8)))
(assert (and (<= 0 t_1) (< t_1 8)))
; Stack contraints
(assert (=> (= t_0 2) (= t_1 2)))
(assert (=> (= t_0 0) (and (<= 0 a_0) (< a_0 115792089237316195423570985008687907853269984665640564039457584007913129639936) (not u_2_0) u_0_1 (= x_0_1 a_0) (and (and (= u_1_1 u_0_0) (= x_1_1 x_0_0)) (and (= u_2_1 u_1_0) (= x_2_1 x_1_0))))))
(assert (=> (= t_0 1) (and u_0_0 (not u_2_1) (and (and (= u_0_1 u_1_0) (= x_0_1 x_1_0)) (and (= u_1_1 u_2_0) (= x_1_1 x_2_0))))))
(assert (=> (= t_0 2) (and (and (= u_0_1 u_0_0) (= x_0_1 x_0_0)) (and (= u_1_1 u_1_0) (= x_1_1 x_1_0)) (and (= u_2_1 u_2_0) (= x_2_1 x_2_0)))))
(assert (=> (= t_0 3) (and (not u_2_0) u_0_0 u_0_1 (= x_0_1 x_0_0) (and (and (= u_1_1 u_0_0) (= x_1_1 x_0_0)) (and (= u_2_1 u_1_0) (= x_2_1 x_1_0))))))
(assert (=> (= t_0 4) (and (not u_2_0) u_1_0 u_0_1 (= x_0_1 x_1_0) (and (and (= u_1_1 u_0_0) (= x_1_1 x_0_0)) (and (= u_2_1 u_1_0) (= x_2_1 x_1_0))))))
(assert (=> (= t_0 5) (and u_1_0 u_0_1 (= x_0_1 x_1_0) u_1_1 (= x_1_1 x_0_0) true (and (and (= u_2_1 u_2_0) (= x_2_1 x_2_0))))))
(assert (=> (= t_0 6) (and u_2_0 u_0_1 (= x_0_1 x_2_0) u_2_1 (= x_2_1 x_0_0) (and (and (= u_1_1 u_1_0) (= x_1_1 x_1_0))) true)))
(assert (=> (= t_1 0) (and (<= 0 a_1) (< a_1 115792089237316195423570985008687907853269984665640564039457584007913129639936) (not u_2_1) u_0_2 (= x_0_2 a_1) (and (and (= u_1_2 u_0_1) (= x_1_2 x_0_1)) (and (= u_2_2 u_1_1) (= x_2_2 x_1_1))))))
(assert (=> (= t_1 1) (and u_0_1 (not u_2_2) (and (and (= u_0_2 u_1_1) (= x_0_2 x_1_1)) (and (= u_1_2 u_2_1) (= x_1_2 x_2_1))))))
(assert (=> (= t_1 2) (and (and (= u_0_2 u_0_1) (= x_0_2 x_0_1)) (and (= u_1_2 u_1_1) (= x_1_2 x_1_1)) (and (= u_2_2 u_2_1) (= x_2_2 x_2_1)))))
(assert (=> (= t_1 3) (and (not u_2_1) u_0_1 u_0_2 (= x_0_2 x_0_1) (and (and (= u_1_2 u_0_1) (= x_1_2 x_0_1)) (and (= u_2_2 u_1_1) (= x_2_2 x_1_1))))))
(assert (=> (= t_1 4) (and (not u_2_1) u_1_1 u_0_2 (= x_0_2 x_1_1) (and (and (= u_1_2 u_0_1) (= x_1_2 x_0_1)) (and (= u_2_2 u_1_1) (= x_2_2 x_1_1))))))
(assert (=> (= t_1 5) (and u_1_1 u_0_2 (= x_0_2 x_1_1) u_1_2 (= x_1_2 x_0_1) true (and (and (= u_2_2 u_2_1) (= x_2_2 x_2_1))))))
(assert (=> (= t_1 6) (and u_2_1 u_0_2 (= x_0_2 x_2_1) u_2_2 (= x_2_2 x_0_1) (and (and (= u_1_2 u_1_1) (= x_1_2 x_1_1))) true)))
; Commutative constraints
; Non-commutative constraints
(assert (=> (= t_0 7) (and (and true) u_0_1 (= x_0_1 |s(2)|) (and (and (= u_1_1 u_0_0) (= x_1_1 x_0_0)) (and (= u_2_1 u_1_0) (= x_2_1 x_1_0))) (and true) (and true (not u_2_0)))))
(assert (not (= t_1 7)))
; Store constraints
; Initial stack constraints
(assert (and u_0_0 (= x_0_0 |s(0)|)))
(assert (not u_1_0))
(assert (not u_2_0))
; Final stack constraints
(assert (and u_0_2 (= x_0_2 |s(0)|)))
(assert (and u_1_2 (= x_1_2 |s(2)|)))
(assert (not u_2_2))
; All values are eventually pushed
; If we push or dup a value, the following instruction cannot be a pop
(assert (=> (= t_1 1) (or (= t_0 1) (= t_0 5) (= t_0 6))))
; All uninterpreted functions in the final stack are eventually used
(assert (or (= t_0 7)))
; Constraints using l variables
; Soft constraints for optimizing the number of instructions
(assert-soft (= t_0 2) :weight 1 :id gas)
(assert-soft (= t_1 2) :weight 1 :id gas)
(check-sat)
(get-objectives)
(get-value (t_0))
(get-value (a_0))
(get-value (t_1))
(get-value (a_1))
; Stack: {'PUSH': 0, 'POP': 1, 'NOP': 2, 'DUP1': 3, 'DUP2': 4, 'SWAP1': 5, 'SWAP2': 6}
; Comm: {}
; Non-Comm: {'PUSHTAG_0': 7}
; Mem: {}
; L dict: {}
